%%% static parameters %%%
timespan = 1;
initial_fruit_bushes = [40];
initial_foragers = [40];
ticks_to_flee = [100];
bush_growth_chance = [10];
rate_of_mutation = [5.0];
%%% dynamic parameters %%%
mean_strength_th = 0.11173948109353782;
mean_strength_w = 16;
mean_speed_th = 0.6893687681779813;
mean_speed_w = 23;
mean_intelligence_th = 0.007832405142328969;
mean_intelligence_w = 34;
murder_rate_th = 0.39463329841000394;
murder_rate_w = 17;
age_death_rate_th = 0.7584051185378257;
age_death_rate_w = 24;
starvation_rate_th = 0.09199663631277921;
starvation_rate_w = 55;
mean_reactive_aggression_th = 0.9559493546776332;
mean_reactive_aggression_w = 53;
mean_proactive_aggression_th = 0.08635489021657394;
mean_proactive_aggression_w = 34;
average_population_th = 133;
average_population_w = 49;
